c nIsolatedPIs 0
c maxPI 32
p cnf 171 418
c gate 33 1 17 0
1 -33 0
17 -33 0
-1 -17 33 0
c gate 34 -2 -18 0
-2 -34 0
-18 -34 0
2 18 34 0
c gate 35 33 34 0
33 -35 0
34 -35 0
-33 -34 35 0
c gate 36 16 -32 0
16 -36 0
-32 -36 0
-16 32 36 0
c gate 37 -16 32 0
-16 -37 0
32 -37 0
16 -32 37 0
c gate 38 -36 -37 0
-36 -38 0
-37 -38 0
36 37 38 0
c gate 39 13 -29 0
13 -39 0
-29 -39 0
-13 29 39 0
c gate 40 -12 28 0
-12 -40 0
28 -40 0
12 -28 40 0
c gate 41 10 -26 0
10 -41 0
-26 -41 0
-10 26 41 0
c gate 42 -9 25 0
-9 -42 0
25 -42 0
9 -25 42 0
c gate 43 -8 24 0
-8 -43 0
24 -43 0
8 -24 43 0
c gate 44 7 -23 0
7 -44 0
-23 -44 0
-7 23 44 0
c gate 45 -7 23 0
-7 -45 0
23 -45 0
7 -23 45 0
c gate 46 6 -22 0
6 -46 0
-22 -46 0
-6 22 46 0
c gate 47 -2 18 0
-2 -47 0
18 -47 0
2 -18 47 0
c gate 48 -1 17 0
-1 -48 0
17 -48 0
1 -17 48 0
c gate 49 -47 -48 0
-47 -49 0
-48 -49 0
47 48 49 0
c gate 50 2 -18 0
2 -50 0
-18 -50 0
-2 18 50 0
c gate 51 3 -19 0
3 -51 0
-19 -51 0
-3 19 51 0
c gate 52 -50 -51 0
-50 -52 0
-51 -52 0
50 51 52 0
c gate 53 -49 52 0
-49 -53 0
52 -53 0
49 -52 53 0
c gate 54 -3 19 0
-3 -54 0
19 -54 0
3 -19 54 0
c gate 55 -4 20 0
-4 -55 0
20 -55 0
4 -20 55 0
c gate 56 -54 -55 0
-54 -56 0
-55 -56 0
54 55 56 0
c gate 57 -53 56 0
-53 -57 0
56 -57 0
53 -56 57 0
c gate 58 5 -21 0
5 -58 0
-21 -58 0
-5 21 58 0
c gate 59 4 -20 0
4 -59 0
-20 -59 0
-4 20 59 0
c gate 60 -58 -59 0
-58 -60 0
-59 -60 0
58 59 60 0
c gate 61 -57 60 0
-57 -61 0
60 -61 0
57 -60 61 0
c gate 62 -6 22 0
-6 -62 0
22 -62 0
6 -22 62 0
c gate 63 -5 21 0
-5 -63 0
21 -63 0
5 -21 63 0
c gate 64 -62 -63 0
-62 -64 0
-63 -64 0
62 63 64 0
c gate 65 -61 64 0
-61 -65 0
64 -65 0
61 -64 65 0
c gate 66 -46 -65 0
-46 -66 0
-65 -66 0
46 65 66 0
c gate 67 -45 -66 0
-45 -67 0
-66 -67 0
45 66 67 0
c gate 68 -44 -67 0
-44 -68 0
-67 -68 0
44 67 68 0
c gate 69 -43 -68 0
-43 -69 0
-68 -69 0
43 68 69 0
c gate 70 8 -24 0
8 -70 0
-24 -70 0
-8 24 70 0
c gate 71 9 -25 0
9 -71 0
-25 -71 0
-9 25 71 0
c gate 72 -70 -71 0
-70 -72 0
-71 -72 0
70 71 72 0
c gate 73 -69 72 0
-69 -73 0
72 -73 0
69 -72 73 0
c gate 74 -42 -73 0
-42 -74 0
-73 -74 0
42 73 74 0
c gate 75 -41 -74 0
-41 -75 0
-74 -75 0
41 74 75 0
c gate 76 -10 26 0
-10 -76 0
26 -76 0
10 -26 76 0
c gate 77 -11 27 0
-11 -77 0
27 -77 0
11 -27 77 0
c gate 78 -76 -77 0
-76 -78 0
-77 -78 0
76 77 78 0
c gate 79 -75 78 0
-75 -79 0
78 -79 0
75 -78 79 0
c gate 80 11 -27 0
11 -80 0
-27 -80 0
-11 27 80 0
c gate 81 12 -28 0
12 -81 0
-28 -81 0
-12 28 81 0
c gate 82 -80 -81 0
-80 -82 0
-81 -82 0
80 81 82 0
c gate 83 -79 82 0
-79 -83 0
82 -83 0
79 -82 83 0
c gate 84 -40 -83 0
-40 -84 0
-83 -84 0
40 83 84 0
c gate 85 -39 -84 0
-39 -85 0
-84 -85 0
39 84 85 0
c gate 86 -13 29 0
-13 -86 0
29 -86 0
13 -29 86 0
c gate 87 -14 30 0
-14 -87 0
30 -87 0
14 -30 87 0
c gate 88 -86 -87 0
-86 -88 0
-87 -88 0
86 87 88 0
c gate 89 -85 88 0
-85 -89 0
88 -89 0
85 -88 89 0
c gate 90 15 -31 0
15 -90 0
-31 -90 0
-15 31 90 0
c gate 91 14 -30 0
14 -91 0
-30 -91 0
-14 30 91 0
c gate 92 90 -91 0
90 -92 0
-91 -92 0
-90 91 92 0
c gate 93 -89 92 0
-89 -93 0
92 -93 0
89 -92 93 0
c gate 94 -38 93 0
-38 -94 0
93 -94 0
38 -93 94 0
c gate 95 -9 -25 0
-9 -95 0
-25 -95 0
9 25 95 0
c gate 96 -43 -70 0
-43 -96 0
-70 -96 0
43 70 96 0
c gate 97 -7 -23 0
-7 -97 0
-23 -97 0
7 23 97 0
c gate 98 7 23 0
7 -98 0
23 -98 0
-7 -23 98 0
c gate 99 -6 -22 0
-6 -99 0
-22 -99 0
6 22 99 0
c gate 100 6 22 0
6 -100 0
22 -100 0
-6 -22 100 0
c gate 101 5 21 0
5 -101 0
21 -101 0
-5 -21 101 0
c gate 102 -4 -20 0
-4 -102 0
-20 -102 0
4 20 102 0
c gate 103 4 20 0
4 -103 0
20 -103 0
-4 -20 103 0
c gate 104 3 19 0
3 -104 0
19 -104 0
-3 -19 104 0
c gate 105 -103 -104 0
-103 -105 0
-104 -105 0
103 104 105 0
c gate 106 2 18 0
2 -106 0
18 -106 0
-2 -18 106 0
c gate 107 -33 -106 0
-33 -107 0
-106 -107 0
33 106 107 0
c gate 108 -51 -54 0
-51 -108 0
-54 -108 0
51 54 108 0
c gate 109 -107 -108 0
-107 -109 0
-108 -109 0
107 108 109 0
c gate 110 -34 109 0
-34 -110 0
109 -110 0
34 -109 110 0
c gate 111 105 -110 0
105 -111 0
-110 -111 0
-105 110 111 0
c gate 112 -102 -111 0
-102 -112 0
-111 -112 0
102 111 112 0
c gate 113 -101 -112 0
-101 -113 0
-112 -113 0
101 112 113 0
c gate 114 -5 -21 0
-5 -114 0
-21 -114 0
5 21 114 0
c gate 115 -113 -114 0
-113 -115 0
-114 -115 0
113 114 115 0
c gate 116 -100 -115 0
-100 -116 0
-115 -116 0
100 115 116 0
c gate 117 -99 -116 0
-99 -117 0
-116 -117 0
99 116 117 0
c gate 118 -98 -117 0
-98 -118 0
-117 -118 0
98 117 118 0
c gate 119 -97 -118 0
-97 -119 0
-118 -119 0
97 118 119 0
c gate 120 -96 119 0
-96 -120 0
119 -120 0
96 -119 120 0
c gate 121 8 24 0
8 -121 0
24 -121 0
-8 -24 121 0
c gate 122 -120 -121 0
-120 -122 0
-121 -122 0
120 121 122 0
c gate 123 -95 -122 0
-95 -123 0
-122 -123 0
95 122 123 0
c gate 124 105 -109 0
105 -124 0
-109 -124 0
-105 109 124 0
c gate 125 -99 -102 0
-99 -125 0
-102 -125 0
99 102 125 0
c gate 126 -100 -114 0
-100 -126 0
-114 -126 0
100 114 126 0
c gate 127 125 126 0
125 -127 0
126 -127 0
-125 -126 127 0
c gate 128 -124 127 0
-124 -128 0
127 -128 0
124 -127 128 0
c gate 129 -117 -128 0
-117 -129 0
-128 -129 0
117 128 129 0
c gate 130 -97 -129 0
-97 -130 0
-129 -130 0
97 129 130 0
c gate 131 -98 -130 0
-98 -131 0
-130 -131 0
98 130 131 0
c gate 132 -96 -131 0
-96 -132 0
-131 -132 0
96 131 132 0
c gate 133 -121 -132 0
-121 -133 0
-132 -133 0
121 132 133 0
c gate 134 -42 -71 0
-42 -134 0
-71 -134 0
42 71 134 0
c gate 135 -41 -76 0
-41 -135 0
-76 -135 0
41 76 135 0
c gate 136 -134 -135 0
-134 -136 0
-135 -136 0
134 135 136 0
c gate 137 -77 -80 0
-77 -137 0
-80 -137 0
77 80 137 0
c gate 138 -40 -81 0
-40 -138 0
-81 -138 0
40 81 138 0
c gate 139 -137 -138 0
-137 -139 0
-138 -139 0
137 138 139 0
c gate 140 136 139 0
136 -140 0
139 -140 0
-136 -139 140 0
c gate 141 -87 -91 0
-87 -141 0
-91 -141 0
87 91 141 0
c gate 142 -38 -141 0
-38 -142 0
-141 -142 0
38 141 142 0
c gate 143 -39 -86 0
-39 -143 0
-86 -143 0
39 86 143 0
c gate 144 -15 31 0
-15 -144 0
31 -144 0
15 -31 144 0
c gate 145 -90 -144 0
-90 -145 0
-144 -145 0
90 144 145 0
c gate 146 -143 -145 0
-143 -146 0
-145 -146 0
143 145 146 0
c gate 147 142 146 0
142 -147 0
146 -147 0
-142 -146 147 0
c gate 148 140 147 0
140 -148 0
147 -148 0
-140 -147 148 0
c gate 149 -133 148 0
-133 -149 0
148 -149 0
133 -148 149 0
c gate 150 -123 149 0
-123 -150 0
149 -150 0
123 -149 150 0
c gate 151 96 131 0
96 -151 0
131 -151 0
-96 -131 151 0
c gate 152 -132 -151 0
-132 -152 0
-151 -152 0
132 151 152 0
c gate 153 96 -119 0
96 -153 0
-119 -153 0
-96 119 153 0
c gate 154 -120 -153 0
-120 -154 0
-153 -154 0
120 153 154 0
c gate 155 -152 154 0
-152 -155 0
154 -155 0
152 -154 155 0
c gate 156 -150 155 0
-150 -156 0
155 -156 0
150 -155 156 0
c gate 157 152 -154 0
152 -157 0
-154 -157 0
-152 154 157 0
c gate 158 33 106 0
33 -158 0
106 -158 0
-33 -106 158 0
c gate 159 113 128 0
113 -159 0
128 -159 0
-113 -128 159 0
c gate 160 -158 -159 0
-158 -160 0
-159 -160 0
158 159 160 0
c gate 161 -44 -45 0
-44 -161 0
-45 -161 0
44 45 161 0
c gate 162 159 161 0
159 -162 0
161 -162 0
-159 -161 162 0
c gate 163 -160 -162 0
-160 -163 0
-162 -163 0
160 162 163 0
c gate 164 -157 163 0
-157 -164 0
163 -164 0
157 -163 164 0
c gate 165 -156 164 0
-156 -165 0
164 -165 0
156 -164 165 0
c gate 166 -94 -165 0
-94 -166 0
-165 -166 0
94 165 166 0
c gate 167 38 93 0
38 -167 0
93 -167 0
-38 -93 167 0
c gate 168 -166 -167 0
-166 -168 0
-167 -168 0
166 167 168 0
c gate 169 -35 168 0
-35 -169 0
168 -169 0
35 -168 169 0
c gate 170 -158 -168 0
-158 -170 0
-168 -170 0
158 168 170 0
c gate 171 -169 -170 0
-169 -171 0
-170 -171 0
169 170 171 0
c PO
171 0
